c "718315.clq"
p edge 200 2944
e 1 17
e 1 18
e 1 19
e 1 20
e 1 22
e 1 23
e 1 24
e 1 27
e 1 29
e 1 31
e 1 33
e 1 34
e 1 35
e 1 40
e 1 44
e 1 62
e 1 63
e 1 70
e 1 71
e 1 76
e 1 77
e 1 80
e 1 81
e 1 82
e 1 96
e 1 106
e 1 112
e 1 113
e 1 114
e 1 116
e 1 135
e 1 136
e 1 143
e 1 144
e 1 181
e 1 184
e 1 189
e 1 190
e 2 17
e 2 18
e 2 19
e 2 20
e 2 21
e 2 22
e 2 23
e 2 25
e 2 27
e 2 28
e 2 30
e 2 31
e 2 32
e 2 34
e 2 46
e 2 51
e 2 58
e 2 73
e 2 75
e 2 86
e 2 88
e 2 103
e 2 104
e 2 110
e 2 113
e 2 117
e 2 118
e 2 122
e 2 124
e 2 125
e 2 127
e 2 128
e 2 137
e 2 140
e 2 142
e 2 154
e 2 158
e 2 168
e 2 171
e 2 186
e 3 17
e 3 18
e 3 19
e 3 21
e 3 22
e 3 24
e 3 25
e 3 29
e 3 30
e 3 31
e 3 32
e 3 36
e 3 44
e 3 51
e 3 52
e 3 53
e 3 60
e 3 66
e 3 71
e 3 80
e 3 83
e 3 84
e 3 89
e 3 94
e 3 106
e 3 107
e 3 123
e 3 125
e 3 187
e 3 191
e 4 17
e 4 18
e 4 19
e 4 20
e 4 21
e 4 22
e 4 24
e 4 25
e 4 30
e 4 33
e 4 35
e 4 38
e 4 39
e 4 40
e 4 46
e 4 47
e 4 54
e 4 63
e 4 67
e 4 69
e 4 74
e 4 78
e 4 90
e 4 100
e 4 111
e 4 137
e 4 141
e 4 149
e 4 153
e 4 171
e 4 173
e 4 174
e 4 176
e 4 192
e 4 197
e 4 199
e 5 17
e 5 18
e 5 19
e 5 21
e 5 22
e 5 23
e 5 25
e 5 26
e 5 27
e 5 28
e 5 32
e 5 34
e 5 40
e 5 45
e 5 52
e 5 55
e 5 57
e 5 66
e 5 71
e 5 75
e 5 77
e 5 85
e 5 87
e 5 93
e 5 98
e 5 102
e 5 109
e 5 112
e 5 116
e 5 119
e 5 122
e 5 125
e 5 140
e 5 147
e 5 152
e 5 159
e 5 171
e 5 182
e 5 183
e 5 193
e 6 17
e 6 18
e 6 19
e 6 20
e 6 21
e 6 22
e 6 23
e 6 25
e 6 26
e 6 28
e 6 29
e 6 31
e 6 32
e 6 33
e 6 34
e 6 36
e 6 39
e 6 43
e 6 45
e 6 50
e 6 56
e 6 65
e 6 68
e 6 73
e 6 76
e 6 81
e 6 91
e 6 95
e 6 105
e 6 107
e 6 113
e 6 120
e 6 123
e 6 127
e 6 130
e 6 135
e 6 141
e 6 148
e 6 153
e 6 155
e 6 163
e 6 175
e 6 176
e 6 178
e 6 181
e 6 195
e 6 199
e 7 17
e 7 18
e 7 19
e 7 20
e 7 21
e 7 22
e 7 23
e 7 24
e 7 25
e 7 29
e 7 32
e 7 33
e 7 35
e 7 39
e 7 41
e 7 47
e 7 51
e 7 54
e 7 57
e 7 58
e 7 59
e 7 61
e 7 62
e 7 65
e 7 66
e 7 69
e 7 76
e 7 80
e 7 83
e 7 87
e 7 89
e 7 92
e 7 96
e 7 103
e 7 106
e 7 122
e 7 126
e 7 127
e 7 129
e 7 131
e 7 137
e 7 143
e 7 148
e 7 152
e 7 170
e 7 173
e 7 174
e 7 178
e 7 191
e 7 192
e 7 196
e 8 17
e 8 18
e 8 19
e 8 20
e 8 26
e 8 27
e 8 37
e 8 43
e 8 50
e 8 54
e 8 59
e 8 62
e 8 98
e 8 99
e 8 100
e 8 103
e 8 104
e 8 127
e 8 143
e 8 166
e 8 169
e 8 178
e 8 181
e 8 200
e 9 17
e 9 18
e 9 19
e 9 20
e 9 21
e 9 24
e 9 25
e 9 31
e 9 37
e 9 44
e 9 46
e 9 50
e 9 54
e 9 58
e 9 64
e 9 68
e 9 87
e 9 89
e 9 100
e 9 107
e 9 118
e 9 129
e 9 131
e 9 133
e 9 167
e 9 172
e 9 174
e 9 181
e 9 186
e 9 199
e 10 17
e 10 19
e 10 21
e 10 23
e 10 29
e 10 31
e 10 33
e 10 36
e 10 38
e 10 43
e 10 46
e 10 48
e 10 55
e 10 72
e 10 77
e 10 87
e 10 113
e 10 118
e 10 142
e 10 160
e 10 165
e 10 170
e 10 185
e 11 17
e 11 18
e 11 20
e 11 21
e 11 22
e 11 23
e 11 24
e 11 26
e 11 30
e 11 34
e 11 38
e 11 45
e 11 52
e 11 56
e 11 64
e 11 65
e 11 75
e 11 157
e 11 164
e 11 182
e 11 194
e 11 200
e 12 17
e 12 18
e 12 19
e 12 20
e 12 24
e 12 26
e 12 28
e 12 33
e 12 34
e 12 38
e 12 40
e 12 45
e 12 50
e 12 52
e 12 60
e 12 62
e 12 64
e 12 70
e 12 71
e 12 80
e 12 83
e 12 84
e 12 86
e 12 87
e 12 97
e 12 98
e 12 117
e 12 120
e 12 124
e 12 129
e 12 145
e 12 149
e 12 158
e 12 169
e 12 172
e 13 17
e 13 18
e 13 19
e 13 20
e 13 21
e 13 22
e 13 23
e 13 24
e 13 25
e 13 27
e 13 28
e 13 30
e 13 35
e 13 36
e 13 37
e 13 41
e 13 42
e 13 43
e 13 47
e 13 48
e 13 50
e 13 58
e 13 65
e 13 68
e 13 71
e 13 72
e 13 82
e 13 84
e 13 101
e 13 109
e 13 113
e 13 115
e 13 121
e 13 122
e 13 124
e 13 130
e 13 137
e 13 143
e 13 165
e 13 171
e 13 181
e 13 182
e 13 184
e 13 192
e 14 17
e 14 18
e 14 19
e 14 20
e 14 21
e 14 23
e 14 25
e 14 26
e 14 27
e 14 28
e 14 31
e 14 34
e 14 35
e 14 37
e 14 38
e 14 39
e 14 46
e 14 47
e 14 59
e 14 63
e 14 69
e 14 72
e 14 73
e 14 76
e 14 86
e 14 87
e 14 102
e 14 105
e 14 107
e 14 116
e 14 121
e 14 122
e 14 147
e 14 148
e 14 155
e 14 172
e 14 181
e 14 191
e 15 17
e 15 18
e 15 19
e 15 20
e 15 22
e 15 23
e 15 26
e 15 27
e 15 29
e 15 30
e 15 31
e 15 32
e 15 33
e 15 35
e 15 36
e 15 38
e 15 39
e 15 40
e 15 43
e 15 44
e 15 47
e 15 48
e 15 55
e 15 56
e 15 57
e 15 58
e 15 59
e 15 60
e 15 71
e 15 76
e 15 79
e 15 80
e 15 81
e 15 83
e 15 85
e 15 86
e 15 93
e 15 96
e 15 97
e 15 101
e 15 102
e 15 104
e 15 105
e 15 113
e 15 122
e 15 124
e 15 126
e 15 129
e 15 132
e 15 139
e 15 141
e 15 147
e 15 154
e 15 158
e 15 159
e 15 164
e 15 168
e 15 183
e 15 184
e 15 185
e 15 191
e 15 196
e 15 197
e 16 17
e 16 18
e 16 20
e 16 21
e 16 22
e 16 24
e 16 26
e 16 27
e 16 29
e 16 30
e 16 31
e 16 32
e 16 34
e 16 35
e 16 36
e 16 38
e 16 43
e 16 44
e 16 47
e 16 52
e 16 66
e 16 67
e 16 71
e 16 76
e 16 77
e 16 78
e 16 85
e 16 97
e 16 107
e 16 113
e 16 122
e 16 125
e 16 132
e 16 151
e 16 152
e 16 153
e 16 154
e 16 157
e 16 158
e 16 159
e 16 164
e 16 175
e 16 185
e 16 194
e 16 196
e 17 18
e 17 19
e 17 20
e 17 21
e 17 22
e 17 23
e 17 24
e 17 25
e 17 26
e 17 27
e 17 28
e 17 29
e 17 30
e 17 34
e 17 35
e 17 37
e 17 39
e 17 40
e 17 41
e 17 42
e 17 44
e 17 45
e 17 46
e 17 49
e 17 53
e 17 54
e 17 57
e 17 60
e 17 61
e 17 62
e 17 64
e 17 66
e 17 70
e 17 71
e 17 72
e 17 73
e 17 76
e 17 77
e 17 78
e 17 81
e 17 82
e 17 84
e 17 85
e 17 87
e 17 91
e 17 92
e 17 96
e 17 98
e 17 102
e 17 104
e 17 105
e 17 111
e 17 117
e 17 120
e 17 123
e 17 127
e 17 130
e 17 134
e 17 135
e 17 136
e 17 138
e 17 139
e 17 144
e 17 148
e 17 150
e 17 154
e 17 161
e 17 162
e 17 163
e 17 165
e 17 169
e 17 177
e 17 182
e 17 183
e 17 188
e 17 189
e 17 191
e 17 193
e 17 198
e 17 200
e 18 19
e 18 20
e 18 21
e 18 22
e 18 23
e 18 24
e 18 25
e 18 26
e 18 27
e 18 28
e 18 29
e 18 30
e 18 33
e 18 35
e 18 36
e 18 37
e 18 38
e 18 40
e 18 41
e 18 44
e 18 47
e 18 49
e 18 54
e 18 55
e 18 57
e 18 74
e 18 76
e 18 77
e 18 78
e 18 81
e 18 82
e 18 83
e 18 84
e 18 85
e 18 87
e 18 90
e 18 93
e 18 94
e 18 101
e 18 102
e 18 111
e 18 112
e 18 116
e 18 118
e 18 120
e 18 121
e 18 122
e 18 123
e 18 128
e 18 131
e 18 132
e 18 134
e 18 137
e 18 140
e 18 142
e 18 146
e 18 151
e 18 158
e 18 159
e 18 161
e 18 169
e 18 170
e 18 171
e 18 173
e 18 174
e 18 175
e 18 178
e 18 183
e 18 184
e 18 188
e 18 190
e 19 20
e 19 21
e 19 22
e 19 23
e 19 24
e 19 26
e 19 28
e 19 29
e 19 30
e 19 31
e 19 34
e 19 37
e 19 38
e 19 39
e 19 41
e 19 42
e 19 44
e 19 46
e 19 49
e 19 50
e 19 53
e 19 54
e 19 57
e 19 63
e 19 66
e 19 69
e 19 74
e 19 75
e 19 77
e 19 94
e 19 97
e 19 98
e 19 99
e 19 103
e 19 105
e 19 106
e 19 111
e 19 123
e 19 136
e 19 138
e 19 140
e 19 148
e 19 152
e 19 153
e 19 155
e 19 163
e 19 180
e 19 182
e 19 190
e 19 191
e 19 194
e 19 196
e 20 21
e 20 22
e 20 23
e 20 24
e 20 25
e 20 27
e 20 28
e 20 29
e 20 32
e 20 33
e 20 34
e 20 35
e 20 37
e 20 38
e 20 39
e 20 42
e 20 45
e 20 47
e 20 50
e 20 51
e 20 52
e 20 55
e 20 56
e 20 57
e 20 58
e 20 59
e 20 60
e 20 62
e 20 66
e 20 70
e 20 72
e 20 74
e 20 79
e 20 81
e 20 82
e 20 83
e 20 99
e 20 100
e 20 104
e 20 105
e 20 107
e 20 110
e 20 112
e 20 113
e 20 117
e 20 119
e 20 124
e 20 129
e 20 130
e 20 131
e 20 132
e 20 134
e 20 135
e 20 145
e 20 148
e 20 156
e 20 157
e 20 164
e 20 174
e 20 178
e 20 179
e 20 180
e 20 182
e 20 183
e 20 197
e 21 22
e 21 23
e 21 24
e 21 25
e 21 26
e 21 27
e 21 28
e 21 36
e 21 37
e 21 38
e 21 40
e 21 42
e 21 43
e 21 44
e 21 45
e 21 48
e 21 49
e 21 51
e 21 53
e 21 55
e 21 57
e 21 59
e 21 60
e 21 64
e 21 65
e 21 67
e 21 70
e 21 71
e 21 72
e 21 78
e 21 80
e 21 81
e 21 88
e 21 93
e 21 94
e 21 99
e 21 102
e 21 106
e 21 111
e 21 119
e 21 121
e 21 128
e 21 133
e 21 137
e 21 143
e 21 144
e 21 146
e 21 149
e 21 150
e 21 151
e 21 168
e 21 171
e 21 176
e 21 181
e 21 187
e 21 190
e 21 195
e 21 198
e 21 200
e 22 23
e 22 24
e 22 25
e 22 26
e 22 27
e 22 28
e 22 29
e 22 31
e 22 32
e 22 36
e 22 40
e 22 41
e 22 43
e 22 48
e 22 50
e 22 56
e 22 58
e 22 62
e 22 64
e 22 67
e 22 69
e 22 75
e 22 78
e 22 80
e 22 83
e 22 84
e 22 85
e 22 90
e 22 91
e 22 93
e 22 97
e 22 102
e 22 117
e 22 119
e 22 127
e 22 133
e 22 136
e 22 141
e 22 148
e 22 153
e 22 158
e 22 162
e 22 182
e 22 191
e 22 193
e 22 194
e 23 24
e 23 25
e 23 26
e 23 27
e 23 28
e 23 29
e 23 30
e 23 31
e 23 32
e 23 33
e 23 36
e 23 37
e 23 38
e 23 39
e 23 41
e 23 42
e 23 44
e 23 47
e 23 48
e 23 49
e 23 51
e 23 53
e 23 54
e 23 62
e 23 64
e 23 65
e 23 66
e 23 69
e 23 70
e 23 72
e 23 74
e 23 77
e 23 78
e 23 79
e 23 80
e 23 88
e 23 89
e 23 94
e 23 100
e 23 103
e 23 104
e 23 105
e 23 106
e 23 108
e 23 109
e 23 110
e 23 111
e 23 114
e 23 118
e 23 120
e 23 122
e 23 123
e 23 125
e 23 133
e 23 135
e 23 139
e 23 154
e 23 155
e 23 156
e 23 157
e 23 159
e 23 160
e 23 164
e 23 177
e 23 179
e 23 180
e 23 187
e 23 188
e 23 189
e 23 198
e 23 199
e 24 25
e 24 26
e 24 27
e 24 29
e 24 30
e 24 31
e 24 32
e 24 33
e 24 36
e 24 37
e 24 39
e 24 41
e 24 42
e 24 43
e 24 45
e 24 47
e 24 48
e 24 51
e 24 54
e 24 63
e 24 64
e 24 66
e 24 68
e 24 69
e 24 74
e 24 78
e 24 79
e 24 81
e 24 84
e 24 85
e 24 87
e 24 88
e 24 91
e 24 92
e 24 99
e 24 100
e 24 102
e 24 105
e 24 108
e 24 115
e 24 117
e 24 118
e 24 119
e 24 120
e 24 124
e 24 125
e 24 127
e 24 129
e 24 130
e 24 136
e 24 138
e 24 139
e 24 141
e 24 145
e 24 167
e 24 169
e 24 171
e 24 176
e 24 180
e 24 185
e 24 188
e 24 195
e 24 196
e 25 26
e 25 28
e 25 29
e 25 30
e 25 31
e 25 32
e 25 34
e 25 35
e 25 36
e 25 37
e 25 39
e 25 45
e 25 46
e 25 47
e 25 50
e 25 52
e 25 53
e 25 58
e 25 59
e 25 60
e 25 62
e 25 66
e 25 68
e 25 79
e 25 82
e 25 83
e 25 95
e 25 96
e 25 104
e 25 107
e 25 108
e 25 114
e 25 121
e 25 123
e 25 135
e 25 139
e 25 147
e 25 163
e 25 164
e 25 171
e 25 172
e 25 174
e 25 175
e 25 177
e 25 187
e 25 193
e 25 199
e 26 27
e 26 28
e 26 29
e 26 30
e 26 32
e 26 33
e 26 35
e 26 36
e 26 40
e 26 42
e 26 43
e 26 44
e 26 45
e 26 49
e 26 50
e 26 53
e 26 59
e 26 60
e 26 62
e 26 65
e 26 67
e 26 69
e 26 72
e 26 74
e 26 80
e 26 82
e 26 84
e 26 88
e 26 89
e 26 90
e 26 91
e 26 96
e 26 112
e 26 113
e 26 114
e 26 115
e 26 126
e 26 130
e 26 135
e 26 138
e 26 143
e 26 160
e 26 172
e 26 178
e 26 179
e 26 183
e 26 184
e 26 186
e 26 188
e 26 191
e 27 28
e 27 31
e 27 32
e 27 35
e 27 38
e 27 40
e 27 42
e 27 44
e 27 48
e 27 52
e 27 54
e 27 55
e 27 56
e 27 57
e 27 58
e 27 61
e 27 68
e 27 69
e 27 73
e 27 75
e 27 79
e 27 86
e 27 87
e 27 88
e 27 94
e 27 95
e 27 101
e 27 105
e 27 108
e 27 116
e 27 128
e 27 133
e 27 135
e 27 146
e 27 149
e 27 154
e 27 156
e 27 174
e 27 175
e 27 185
e 27 186
e 27 199
e 28 30
e 28 32
e 28 34
e 28 36
e 28 38
e 28 40
e 28 41
e 28 42
e 28 45
e 28 49
e 28 50
e 28 52
e 28 53
e 28 55
e 28 57
e 28 61
e 28 62
e 28 63
e 28 64
e 28 70
e 28 71
e 28 79
e 28 82
e 28 84
e 28 87
e 28 92
e 28 97
e 28 103
e 28 108
e 28 110
e 28 111
e 28 119
e 28 130
e 28 134
e 28 141
e 28 161
e 28 162
e 28 171
e 28 176
e 28 177
e 28 180
e 28 194
e 29 30
e 29 31
e 29 33
e 29 35
e 29 40
e 29 42
e 29 45
e 29 46
e 29 49
e 29 54
e 29 57
e 29 81
e 29 88
e 29 89
e 29 90
e 29 93
e 29 94
e 29 106
e 29 118
e 29 124
e 29 131
e 29 135
e 29 136
e 29 140
e 29 144
e 29 150
e 29 151
e 29 155
e 29 159
e 29 164
e 29 167
e 29 170
e 29 176
e 29 179
e 29 185
e 29 189
e 29 199
e 30 32
e 30 33
e 30 35
e 30 37
e 30 39
e 30 41
e 30 47
e 30 49
e 30 50
e 30 51
e 30 58
e 30 61
e 30 62
e 30 68
e 30 72
e 30 75
e 30 86
e 30 93
e 30 94
e 30 95
e 30 98
e 30 114
e 30 122
e 30 126
e 30 130
e 30 132
e 30 138
e 30 139
e 30 146
e 30 150
e 30 161
e 30 178
e 30 180
e 30 190
e 30 193
e 30 200
e 31 33
e 31 34
e 31 36
e 31 40
e 31 41
e 31 43
e 31 46
e 31 48
e 31 50
e 31 51
e 31 59
e 31 67
e 31 68
e 31 73
e 31 74
e 31 78
e 31 82
e 31 83
e 31 84
e 31 89
e 31 102
e 31 112
e 31 114
e 31 117
e 31 143
e 31 144
e 31 147
e 31 152
e 31 156
e 31 158
e 31 161
e 31 165
e 31 177
e 31 195
e 32 33
e 32 34
e 32 35
e 32 37
e 32 38
e 32 39
e 32 40
e 32 42
e 32 43
e 32 47
e 32 49
e 32 50
e 32 51
e 32 53
e 32 58
e 32 61
e 32 62
e 32 63
e 32 65
e 32 67
e 32 68
e 32 70
e 32 71
e 32 74
e 32 77
e 32 79
e 32 84
e 32 86
e 32 88
e 32 92
e 32 94
e 32 95
e 32 99
e 32 101
e 32 104
e 32 111
e 32 113
e 32 119
e 32 121
e 32 125
e 32 134
e 32 137
e 32 141
e 32 146
e 32 149
e 32 153
e 32 177
e 32 184
e 32 188
e 32 189
e 32 199
e 32 200
e 33 34
e 33 37
e 33 40
e 33 41
e 33 42
e 33 43
e 33 46
e 33 47
e 33 49
e 33 51
e 33 53
e 33 54
e 33 57
e 33 60
e 33 70
e 33 73
e 33 79
e 33 85
e 33 96
e 33 106
e 33 107
e 33 108
e 33 112
e 33 115
e 33 116
e 33 135
e 33 136
e 33 147
e 33 148
e 33 149
e 33 161
e 33 162
e 33 165
e 33 173
e 33 175
e 33 178
e 33 180
e 33 186
e 33 192
e 34 44
e 34 46
e 34 48
e 34 52
e 34 53
e 34 55
e 34 56
e 34 59
e 34 72
e 34 76
e 34 91
e 34 92
e 34 95
e 34 97
e 34 101
e 34 105
e 34 110
e 34 114
e 34 115
e 34 117
e 34 129
e 34 134
e 34 143
e 34 145
e 34 152
e 34 180
e 35 36
e 35 37
e 35 38
e 35 41
e 35 44
e 35 45
e 35 49
e 35 56
e 35 58
e 35 59
e 35 61
e 35 64
e 35 66
e 35 68
e 35 70
e 35 76
e 35 81
e 35 82
e 35 84
e 35 86
e 35 95
e 35 96
e 35 98
e 35 102
e 35 107
e 35 109
e 35 117
e 35 124
e 35 129
e 35 131
e 35 134
e 35 138
e 35 141
e 35 146
e 35 149
e 35 150
e 35 159
e 35 163
e 35 165
e 35 166
e 35 167
e 35 174
e 35 175
e 35 182
e 35 184
e 35 187
e 35 195
e 36 39
e 36 42
e 36 46
e 36 48
e 36 50
e 36 57
e 36 61
e 36 63
e 36 69
e 36 72
e 36 76
e 36 79
e 36 93
e 36 105
e 36 108
e 36 110
e 36 120
e 36 130
e 36 148
e 36 151
e 36 154
e 36 161
e 36 162
e 36 175
e 36 176
e 36 187
e 36 190
e 36 191
e 36 200
e 37 39
e 37 42
e 37 44
e 37 45
e 37 51
e 37 52
e 37 53
e 37 55
e 37 58
e 37 63
e 37 65
e 37 67
e 37 72
e 37 74
e 37 82
e 37 86
e 37 88
e 37 89
e 37 93
e 37 94
e 37 98
e 37 101
e 37 105
e 37 115
e 37 116
e 37 123
e 37 139
e 37 145
e 37 151
e 37 154
e 37 160
e 37 188
e 37 196
e 37 197
e 37 200
e 38 39
e 38 41
e 38 45
e 38 55
e 38 56
e 38 59
e 38 60
e 38 61
e 38 64
e 38 70
e 38 83
e 38 86
e 38 92
e 38 98
e 38 102
e 38 103
e 38 116
e 38 126
e 38 132
e 38 137
e 38 149
e 38 153
e 38 157
e 38 160
e 38 166
e 38 187
e 38 198
e 39 41
e 39 42
e 39 46
e 39 53
e 39 55
e 39 65
e 39 67
e 39 69
e 39 71
e 39 75
e 39 77
e 39 78
e 39 85
e 39 87
e 39 94
e 39 106
e 39 111
e 39 115
e 39 118
e 39 146
e 39 158
e 39 162
e 39 171
e 39 174
e 39 186
e 39 192
e 40 41
e 40 43
e 40 48
e 40 49
e 40 58
e 40 60
e 40 66
e 40 67
e 40 74
e 40 82
e 40 88
e 40 89
e 40 94
e 40 97
e 40 106
e 40 113
e 40 114
e 40 132
e 40 133
e 40 156
e 40 157
e 40 168
e 40 174
e 40 178
e 40 179
e 40 187
e 40 189
e 40 191
e 40 195
e 41 43
e 41 44
e 41 48
e 41 49
e 41 51
e 41 59
e 41 64
e 41 65
e 41 66
e 41 67
e 41 73
e 41 75
e 41 78
e 41 79
e 41 81
e 41 83
e 41 85
e 41 86
e 41 87
e 41 90
e 41 96
e 41 97
e 41 99
e 41 100
e 41 114
e 41 118
e 41 135
e 41 142
e 41 154
e 41 157
e 41 159
e 41 163
e 41 166
e 41 167
e 41 171
e 41 172
e 41 195
e 42 43
e 42 47
e 42 48
e 42 53
e 42 56
e 42 64
e 42 66
e 42 73
e 42 74
e 42 76
e 42 78
e 42 79
e 42 85
e 42 91
e 42 95
e 42 103
e 42 107
e 42 109
e 42 110
e 42 120
e 42 121
e 42 125
e 42 127
e 42 128
e 42 137
e 42 139
e 42 140
e 42 141
e 42 147
e 42 149
e 42 155
e 42 156
e 42 170
e 42 172
e 42 175
e 42 181
e 42 193
e 42 200
e 43 46
e 43 48
e 43 51
e 43 58
e 43 61
e 43 65
e 43 67
e 43 69
e 43 71
e 43 73
e 43 76
e 43 78
e 43 89
e 43 96
e 43 97
e 43 109
e 43 134
e 43 142
e 43 158
e 43 164
e 43 186
e 43 196
e 44 45
e 44 49
e 44 52
e 44 54
e 44 55
e 44 63
e 44 71
e 44 72
e 44 78
e 44 91
e 44 94
e 44 99
e 44 100
e 44 101
e 44 103
e 44 106
e 44 108
e 44 114
e 44 116
e 44 117
e 44 129
e 44 131
e 44 132
e 44 140
e 44 142
e 44 151
e 44 153
e 44 155
e 44 159
e 44 161
e 44 168
e 44 172
e 44 174
e 44 176
e 44 177
e 44 183
e 44 191
e 44 193
e 44 197
e 44 200
e 45 46
e 45 47
e 45 50
e 45 52
e 45 57
e 45 59
e 45 67
e 45 68
e 45 77
e 45 78
e 45 83
e 45 88
e 45 89
e 45 95
e 45 96
e 45 102
e 45 108
e 45 109
e 45 111
e 45 123
e 45 124
e 45 131
e 45 132
e 45 143
e 45 150
e 45 156
e 45 163
e 45 167
e 45 171
e 45 175
e 45 181
e 45 184
e 45 194
e 45 198
e 46 52
e 46 54
e 46 55
e 46 56
e 46 60
e 46 61
e 46 63
e 46 66
e 46 67
e 46 72
e 46 75
e 46 80
e 46 89
e 46 92
e 46 101
e 46 105
e 46 106
e 46 108
e 46 109
e 46 110
e 46 114
e 46 119
e 46 121
e 46 125
e 46 126
e 46 130
e 46 139
e 46 151
e 46 165
e 46 166
e 46 167
e 46 185
e 47 48
e 47 49
e 47 54
e 47 56
e 47 57
e 47 61
e 47 73
e 47 74
e 47 80
e 47 84
e 47 90
e 47 99
e 47 103
e 47 104
e 47 109
e 47 117
e 47 119
e 47 121
e 47 122
e 47 124
e 47 127
e 47 145
e 47 161
e 47 173
e 47 180
e 47 184
e 47 189
e 47 190
e 47 192
e 48 51
e 48 52
e 48 56
e 48 63
e 48 68
e 48 70
e 48 73
e 48 75
e 48 97
e 48 101
e 48 106
e 48 110
e 48 112
e 48 131
e 48 138
e 48 146
e 48 147
e 48 156
e 48 167
e 48 172
e 48 174
e 48 198
e 49 51
e 49 53
e 49 56
e 49 59
e 49 60
e 49 61
e 49 63
e 49 70
e 49 79
e 49 81
e 49 82
e 49 84
e 49 90
e 49 96
e 49 98
e 49 126
e 49 128
e 49 135
e 49 140
e 49 145
e 49 165
e 49 181
e 49 185
e 50 52
e 50 53
e 50 54
e 50 55
e 50 59
e 50 60
e 50 62
e 50 63
e 50 67
e 50 68
e 50 69
e 50 70
e 50 74
e 50 75
e 50 82
e 50 89
e 50 93
e 50 97
e 50 112
e 50 115
e 50 117
e 50 120
e 50 121
e 50 128
e 50 129
e 50 134
e 50 136
e 50 140
e 50 142
e 50 143
e 50 147
e 50 151
e 50 152
e 50 154
e 50 155
e 50 172
e 50 177
e 50 178
e 50 184
e 50 185
e 50 189
e 51 56
e 51 76
e 51 122
e 51 125
e 51 136
e 51 141
e 51 145
e 51 175
e 51 195
e 52 56
e 52 65
e 52 72
e 52 74
e 52 76
e 52 94
e 52 95
e 52 98
e 52 103
e 52 110
e 52 118
e 52 124
e 52 126
e 52 128
e 52 136
e 52 156
e 52 161
e 52 162
e 52 163
e 52 166
e 52 171
e 52 175
e 52 180
e 53 60
e 53 62
e 53 69
e 53 71
e 53 104
e 53 115
e 53 120
e 53 123
e 53 136
e 53 173
e 53 182
e 53 196
e 54 55
e 54 58
e 54 62
e 54 63
e 54 75
e 54 77
e 54 79
e 54 90
e 54 93
e 54 111
e 54 127
e 54 128
e 54 129
e 54 135
e 54 143
e 54 167
e 54 176
e 54 177
e 54 190
e 55 61
e 55 76
e 55 87
e 55 90
e 55 91
e 55 98
e 55 108
e 55 112
e 55 113
e 55 117
e 55 120
e 55 136
e 55 139
e 55 141
e 55 152
e 55 154
e 55 160
e 55 165
e 55 179
e 55 182
e 55 192
e 55 194
e 55 199
e 56 57
e 56 68
e 56 69
e 56 90
e 56 91
e 56 93
e 56 95
e 56 96
e 56 108
e 56 115
e 56 116
e 56 119
e 56 120
e 56 123
e 56 161
e 56 173
e 56 194
e 56 197
e 57 60
e 57 73
e 57 91
e 57 93
e 57 95
e 57 101
e 57 102
e 57 109
e 57 112
e 57 121
e 57 142
e 57 145
e 57 182
e 57 183
e 57 187
e 57 198
e 58 61
e 58 63
e 58 65
e 58 70
e 58 77
e 58 86
e 58 88
e 58 89
e 58 90
e 58 107
e 58 109
e 58 116
e 58 119
e 58 134
e 58 155
e 58 164
e 58 182
e 58 190
e 58 193
e 58 194
e 59 65
e 59 68
e 59 79
e 59 81
e 59 85
e 59 86
e 59 87
e 59 92
e 59 96
e 59 97
e 59 98
e 59 107
e 59 124
e 59 130
e 59 131
e 59 149
e 59 156
e 59 166
e 59 172
e 59 176
e 59 177
e 59 194
e 60 61
e 60 64
e 60 66
e 60 70
e 60 71
e 60 72
e 60 73
e 60 74
e 60 83
e 60 85
e 60 95
e 60 126
e 60 128
e 60 136
e 60 142
e 60 156
e 60 169
e 60 179
e 60 185
e 61 64
e 61 77
e 61 78
e 61 82
e 61 85
e 61 99
e 61 101
e 61 102
e 61 115
e 61 120
e 61 124
e 61 128
e 61 138
e 61 148
e 61 152
e 61 168
e 61 176
e 61 184
e 61 198
e 62 65
e 62 73
e 62 90
e 62 92
e 62 94
e 62 103
e 62 108
e 62 109
e 62 110
e 62 154
e 62 168
e 62 171
e 62 191
e 62 192
e 62 195
e 63 64
e 63 73
e 63 79
e 63 104
e 63 108
e 63 116
e 63 125
e 63 188
e 64 67
e 64 69
e 64 88
e 64 94
e 64 100
e 64 109
e 64 114
e 64 119
e 64 143
e 64 159
e 64 162
e 64 163
e 64 170
e 64 189
e 64 200
e 65 80
e 65 92
e 65 93
e 65 95
e 65 100
e 65 103
e 65 115
e 65 121
e 65 148
e 65 161
e 65 170
e 65 173
e 65 193
e 66 80
e 66 102
e 66 103
e 66 110
e 66 113
e 66 114
e 66 115
e 66 124
e 66 132
e 66 155
e 66 162
e 66 196
e 66 197
e 67 68
e 67 83
e 67 86
e 67 96
e 67 100
e 67 110
e 67 117
e 67 125
e 67 127
e 67 134
e 67 137
e 67 140
e 67 163
e 67 167
e 67 177
e 67 182
e 67 195
e 68 82
e 68 121
e 68 133
e 68 135
e 68 138
e 68 149
e 68 156
e 68 197
e 69 88
e 69 89
e 69 99
e 69 107
e 69 111
e 69 134
e 69 164
e 69 183
e 70 85
e 70 90
e 70 91
e 70 92
e 70 125
e 70 181
e 70 183
e 70 188
e 71 75
e 71 81
e 71 85
e 71 101
e 71 106
e 71 120
e 71 121
e 71 128
e 71 137
e 71 144
e 71 147
e 71 151
e 71 168
e 71 173
e 71 174
e 71 194
e 72 77
e 72 100
e 72 109
e 72 112
e 72 113
e 72 118
e 72 147
e 72 166
e 72 170
e 72 171
e 72 184
e 72 186
e 72 187
e 72 198
e 73 75
e 73 77
e 73 80
e 73 81
e 73 88
e 73 100
e 73 105
e 73 118
e 73 122
e 73 126
e 73 140
e 73 150
e 73 171
e 73 185
e 73 189
e 74 75
e 74 99
e 74 106
e 74 116
e 74 119
e 74 122
e 74 145
e 74 152
e 74 156
e 74 157
e 74 187
e 74 200
e 75 80
e 75 83
e 75 98
e 75 104
e 75 118
e 75 127
e 75 128
e 75 146
e 75 149
e 75 152
e 75 155
e 75 162
e 75 167
e 75 169
e 75 174
e 75 196
e 75 199
e 76 81
e 76 83
e 76 86
e 76 90
e 76 121
e 76 130
e 76 162
e 76 169
e 76 170
e 76 176
e 76 184
e 77 87
e 77 129
e 77 136
e 77 143
e 77 144
e 77 146
e 77 147
e 77 158
e 77 164
e 77 169
e 77 178
e 77 184
e 77 190
e 77 194
e 78 88
e 78 91
e 78 104
e 78 133
e 78 139
e 78 140
e 78 145
e 78 173
e 78 182
e 78 193
e 78 198
e 78 200
e 79 80
e 79 84
e 79 91
e 79 93
e 79 100
e 79 110
e 79 117
e 79 129
e 79 136
e 79 138
e 79 150
e 79 151
e 79 153
e 79 157
e 79 163
e 79 170
e 79 180
e 79 188
e 79 192
e 80 84
e 80 90
e 80 91
e 80 92
e 80 93
e 80 97
e 80 98
e 80 99
e 80 119
e 80 126
e 80 131
e 80 134
e 80 144
e 80 159
e 80 166
e 80 183
e 80 189
e 80 197
e 81 146
e 81 181
e 81 198
e 82 101
e 82 111
e 82 133
e 82 136
e 82 150
e 82 151
e 82 165
e 82 172
e 82 179
e 82 187
e 82 189
e 82 192
e 83 86
e 83 92
e 83 110
e 83 116
e 83 133
e 83 138
e 83 144
e 84 97
e 84 108
e 84 125
e 84 131
e 84 135
e 84 160
e 84 174
e 84 186
e 85 95
e 85 109
e 85 127
e 85 132
e 85 145
e 85 149
e 85 185
e 85 187
e 85 188
e 85 195
e 86 89
e 86 95
e 86 99
e 86 107
e 86 111
e 86 112
e 86 115
e 86 125
e 86 128
e 86 132
e 86 137
e 86 153
e 86 165
e 86 186
e 86 189
e 86 192
e 87 91
e 87 99
e 87 102
e 87 112
e 87 115
e 87 116
e 87 123
e 87 130
e 87 137
e 87 140
e 87 148
e 87 149
e 87 179
e 87 196
e 88 97
e 88 101
e 88 104
e 88 118
e 88 124
e 88 128
e 88 129
e 88 133
e 88 161
e 88 186
e 88 191
e 88 192
e 89 104
e 89 141
e 89 155
e 89 162
e 89 182
e 89 187
e 89 190
e 90 92
e 90 98
e 90 122
e 90 123
e 90 126
e 90 133
e 90 163
e 90 169
e 90 174
e 90 192
e 90 197
e 91 92
e 91 99
e 91 105
e 91 132
e 91 135
e 91 138
e 91 145
e 91 147
e 91 169
e 91 182
e 91 190
e 91 191
e 92 96
e 92 100
e 92 111
e 92 112
e 92 127
e 92 140
e 92 146
e 92 150
e 92 155
e 92 191
e 93 107
e 93 120
e 93 124
e 93 131
e 93 150
e 93 153
e 93 166
e 93 179
e 94 121
e 94 125
e 94 144
e 94 149
e 94 160
e 94 165
e 94 170
e 94 172
e 94 175
e 95 100
e 95 153
e 95 170
e 95 199
e 96 103
e 96 104
e 96 123
e 96 138
e 96 153
e 96 157
e 96 162
e 96 164
e 96 168
e 96 169
e 96 197
e 97 105
e 97 107
e 97 112
e 97 131
e 97 133
e 97 144
e 97 149
e 97 152
e 97 157
e 97 158
e 97 160
e 97 169
e 97 177
e 97 195
e 98 109
e 98 113
e 98 117
e 98 119
e 98 133
e 98 166
e 98 186
e 99 101
e 99 108
e 99 131
e 99 133
e 99 169
e 99 187
e 99 188
e 99 197
e 100 103
e 100 110
e 100 139
e 100 142
e 100 143
e 100 146
e 100 173
e 100 194
e 101 113
e 101 129
e 101 150
e 101 164
e 101 186
e 101 198
e 102 106
e 102 111
e 102 114
e 102 131
e 102 139
e 102 141
e 102 142
e 102 159
e 102 172
e 102 178
e 102 179
e 103 134
e 103 145
e 103 148
e 103 163
e 103 164
e 103 173
e 103 177
e 104 139
e 104 155
e 104 167
e 104 180
e 105 132
e 105 143
e 105 148
e 105 164
e 105 185
e 105 186
e 106 114
e 106 138
e 106 152
e 106 200
e 107 145
e 107 181
e 107 195
e 108 115
e 108 116
e 108 126
e 108 130
e 108 151
e 108 161
e 108 170
e 109 119
e 109 122
e 109 126
e 109 190
e 109 191
e 110 138
e 110 154
e 110 161
e 111 118
e 111 144
e 111 146
e 111 156
e 111 168
e 111 178
e 111 180
e 112 127
e 112 147
e 112 150
e 112 155
e 112 157
e 113 114
e 113 118
e 113 144
e 113 150
e 113 154
e 113 157
e 113 162
e 113 175
e 113 183
e 114 127
e 114 158
e 114 183
e 115 142
e 115 159
e 115 180
e 116 123
e 116 126
e 116 140
e 116 145
e 116 166
e 116 184
e 116 193
e 116 196
e 117 120
e 117 126
e 117 132
e 117 137
e 117 157
e 117 158
e 117 166
e 117 169
e 118 137
e 118 158
e 118 170
e 118 177
e 118 200
e 119 123
e 119 148
e 119 151
e 119 163
e 119 166
e 119 192
e 120 130
e 120 159
e 120 160
e 120 186
e 120 193
e 121 129
e 122 148
e 122 151
e 123 139
e 124 128
e 124 130
e 124 141
e 124 157
e 124 173
e 125 134
e 125 138
e 125 142
e 125 158
e 126 133
e 126 167
e 127 134
e 127 140
e 127 154
e 127 161
e 127 165
e 127 167
e 127 176
e 127 179
e 127 193
e 128 154
e 128 160
e 128 165
e 128 167
e 128 178
e 128 181
e 128 196
e 129 132
e 129 141
e 129 155
e 129 184
e 130 139
e 130 162
e 131 142
e 131 147
e 131 153
e 131 156
e 131 163
e 131 166
e 131 179
e 131 183
e 132 152
e 133 179
e 133 183
e 133 187
e 133 190
e 134 147
e 134 159
e 134 189
e 135 137
e 135 170
e 135 189
e 135 195
e 136 160
e 136 172
e 137 142
e 137 168
e 137 178
e 137 199
e 138 150
e 138 167
e 139 142
e 139 143
e 139 144
e 139 196
e 140 141
e 140 144
e 140 146
e 140 153
e 141 144
e 141 156
e 141 159
e 141 175
e 141 193
e 142 146
e 142 157
e 142 162
e 142 168
e 142 178
e 142 199
e 143 150
e 143 151
e 143 158
e 143 160
e 143 168
e 143 170
e 144 153
e 145 152
e 145 166
e 145 168
e 145 173
e 146 190
e 146 194
e 146 199
e 147 152
e 148 176
e 148 183
e 148 200
e 149 160
e 149 164
e 149 175
e 149 195
e 150 165
e 150 188
e 151 181
e 152 177
e 153 163
e 153 179
e 154 177
e 154 190
e 155 173
e 155 198
e 156 160
e 156 168
e 156 197
e 157 160
e 158 168
e 159 176
e 159 179
e 161 180
e 161 198
e 162 169
e 162 185
e 162 197
e 163 185
e 164 165
e 164 196
e 164 199
e 165 172
e 166 181
e 166 197
e 167 185
e 169 173
e 171 189
e 171 192
e 171 194
e 172 176
e 172 196
e 173 180
e 173 192
e 174 188
e 174 198
e 177 194
e 178 199
e 179 188
e 179 193
e 179 197
e 181 186
e 186 188
e 186 193
e 191 198
e 193 195
